sat
(:max-memory         18.52
 :memory             18.42
 :nlsat-arith-var    3
 :nlsat-atoms        14
 :nlsat-bool-var     4
 :nlsat-clauses      8
 :nlsat-conflicts    5
 :nlsat-decisions    5
 :nlsat-propagations 23
 :nlsat-stages       8
 :num-allocs         61170
 :rlimit-count       9349
 :time               0.01
 :total-time         0.01)
